analyze/results_flowersnark/final_miplib_symretope_if_extended_generating_set_cpx_v802__settings_final_nosym_norestarts__4__mspp16.mps.gz.sol
solution status: time limit reached
objective value:                                  363
C560                                                1 	(obj:11)
C57290                                              1 	(obj:11)
C250277                                             1 	(obj:11)
C650369                                             1 	(obj:11)
C1340702                                            1 	(obj:11)
C2416700                                            1 	(obj:11)
C3986075                                            1 	(obj:11)
C6168827                                            1 	(obj:11)
C9097244                                            1 	(obj:11)
C12915902                                           1 	(obj:11)
C17781665                                           1 	(obj:11)
C23863685                                           1 	(obj:11)
C31343402                                           1 	(obj:11)
C40414544                                           1 	(obj:11)
C51283127                                           1 	(obj:11)
C64530479                                           1 	(obj:11)
C66730127                                           1 	(obj:11)
C68966639                                           1 	(obj:11)
C69531527                                           1 	(obj:11)
C70098719                                           1 	(obj:11)
C71240015                                           1 	(obj:11)
C76886199                                           1 	(obj:11)
C77482575                                           1 	(obj:11)
C79285527                                           1 	(obj:11)
C79891119                                           1 	(obj:11)
C82953639                                           1 	(obj:11)
C84818799                                           1 	(obj:11)
C85654415                                           1 	(obj:11)
C91401959                                           1 	(obj:11)
C94016327                                           1 	(obj:11)
C98006999                                           1 	(obj:11)
C98905079                                           1 	(obj:11)
C99355655                                           1 	(obj:11)
