analyze/results_flowersnark/final_miplib_symretope_if_extended_generating_set_cpx_v802__settings_final_nosym_norestarts__4__mspp16.mps.gz.out
FILENAME:   /home/mcs001/s132664/testsets/IP/miplib2010/mspp16.mps.gz
SETTINGS:   settings_final_nosym_norestarts
TIMELIMIT:  7200
OUTPUTNAME: final_miplib_symretope_if_extended_generating_set_cpx_v802__settings_final_nosym_norestarts__4__
BINNAME:    bin/sbcs.linux.x86_64.gnu.opt.cpx
BASENAME:   mspp16.mps.gz
SEED:       4
@01 /home/mcs001/s132664/testsets/IP/miplib2010/mspp16.mps.gz ===========
@02 mspp16.mps.gz
@03 1686663837
SCIP version 8.0.2 [precision: 8 byte] [memory: block] [mode: optimized] [LP solver: CPLEX 20.1.0.0] [GitHash: 5f0473c]
Copyright (C) 2002-2022 Konrad-Zuse-Zentrum fuer Informationstechnik Berlin (ZIB)

Symretope propagation methods - (c) Jasper van Doornmalen, Christopher Hojny.
[GitHash: 2fd0484]

reading parameter file <../settings/settings_final_nosym_norestarts.set> ...

Changed settings:
limits/time = 7200
limits/restarts = 0
misc/usesymmetry = 0
randomization/randomseedshift = 4
constraints/orbisack/sepafreq = -1
constraints/symresack/sepafreq = -1
propagating/symmetry/detectsubgroups = FALSE
propagating/symmetry/usesymretopes = FALSE
propagating/symmetry/relabelsymretopes = 0
propagating/symmetry/ofsymcomptiming = 0
constraints/symretope/sepafreq = -1
constraints/symretope/peek = FALSE


solving problem ...

original problem has 29280 variables (29280 bin, 0 int, 0 impl, 0 cont) and 561657 constraints
presolving:
(round 1, fast)       25215 del vars, 36781 del conss, 0 add conss, 25215 chg bounds, 991 chg sides, 0 chg coeffs, 0 upgd conss, 0 impls, 1726 clqs
(round 2, exhaustive) 25215 del vars, 36843 del conss, 0 add conss, 25215 chg bounds, 991 chg sides, 0 chg coeffs, 524798 upgd conss, 0 impls, 1726 clqs
(round 3, medium)     25215 del vars, 37053 del conss, 210 add conss, 25215 chg bounds, 1201 chg sides, 3360 chg coeffs, 524798 upgd conss, 0 impls, 1935 clqs
   (55.5s) sparsify aborted: 480/27555495 (0.0%) nonzeros canceled - in total 480 canceled nonzeros, 480 changed coefficients, 0 added nonzeros
   (121.2s) probing: 180/4065 (4.4%) - 0 fixings, 0 aggregations, 1575 implications, 0 bound changes
   (121.2s) probing aborted: 50/50 successive totally useless probings
presolving (4 rounds: 4 fast, 3 medium, 2 exhaustive):
 25215 deleted vars, 37053 deleted constraints, 210 added constraints, 25215 tightened bounds, 0 added holes, 1201 changed sides, 4080 changed coefficients
 0 implications, 3510 cliques
presolved problem has 4065 variables (4065 bin, 0 int, 0 impl, 0 cont) and 524814 constraints
 522862 constraints of type <knapsack>
   1936 constraints of type <setppc>
     16 constraints of type <linear>
transformed objective value is always integral (scale: 11)
Presolving Time: 122.40

 time | node  | left  |LP iter|LP it/n|mem/heur|mdpt |vars |cons |rows |cuts |sepa|confs|strbr|  dualbound   | primalbound  |  gap   | compl. 
  267s|     1 |     0 |     2 |     - |  8496M |   0 |4065 | 524k| 524k|   0 |  0 |  67 |   0 | 3.410000e+02 |      --      |    Inf | unknown
r 268s|     1 |     0 |     2 |     - |shifting|   0 |4065 | 524k| 524k|   0 |  0 |  67 |   0 | 3.410000e+02 | 3.740000e+02 |   9.68%| unknown
  272s|     1 |     0 |    13 |     - |  8555M |   0 |4065 | 524k| 524k|   4 |  1 |  67 |   0 | 3.410000e+02 | 3.740000e+02 |   9.68%| unknown
  277s|     1 |     0 |    42 |     - |  8612M |   0 |4065 | 524k| 524k|  10 |  2 |  67 |   0 | 3.410000e+02 | 3.740000e+02 |   9.68%| unknown
r 279s|     1 |     0 |    42 |     - |shifting|   0 |4065 | 524k| 524k|  10 |  2 |  67 |   0 | 3.410000e+02 | 3.630000e+02 |   6.45%| unknown
  283s|     1 |     0 |    68 |     - |  8669M |   0 |4065 | 524k| 524k|  15 |  3 |  67 |   0 | 3.410000e+02 | 3.630000e+02 |   6.45%| unknown
  288s|     1 |     0 |    87 |     - |  8725M |   0 |4065 | 524k| 524k|  21 |  4 |  67 |   0 | 3.410000e+02 | 3.630000e+02 |   6.45%| unknown
  294s|     1 |     0 |   114 |     - |  8782M |   0 |4065 | 524k| 524k|  28 |  5 |  67 |   0 | 3.410000e+02 | 3.630000e+02 |   6.45%| unknown
  300s|     1 |     0 |   146 |     - |  8839M |   0 |4065 | 524k| 524k|  35 |  6 |  67 |   0 | 3.410000e+02 | 3.630000e+02 |   6.45%| unknown
  305s|     1 |     0 |   178 |     - |  8895M |   0 |4065 | 524k| 524k|  41 |  7 |  67 |   0 | 3.410000e+02 | 3.630000e+02 |   6.45%| unknown
  311s|     1 |     0 |   208 |     - |  8952M |   0 |4065 | 524k| 524k|  49 |  8 |  67 |   0 | 3.410000e+02 | 3.630000e+02 |   6.45%| unknown
  317s|     1 |     0 |   244 |     - |  9007M |   0 |4065 | 524k| 524k|  57 |  9 |  67 |   0 | 3.410000e+02 | 3.630000e+02 |   6.45%| unknown
  324s|     1 |     0 |   270 |     - |  9063M |   0 |4065 | 524k| 524k|  64 | 10 |  67 |   0 | 3.410000e+02 | 3.630000e+02 |   6.45%| unknown
  335s|     1 |     0 |   300 |     - |  9120M |   0 |4065 | 524k| 524k|  70 | 11 |  67 |   0 | 3.410000e+02 | 3.630000e+02 |   6.45%| unknown
  509s|     1 |     2 |   350 |     - |  9140M |   0 |4065 | 524k| 524k|  70 | 11 |  70 |  29 | 3.410000e+02 | 3.630000e+02 |   6.45%| unknown
 time | node  | left  |LP iter|LP it/n|mem/heur|mdpt |vars |cons |rows |cuts |sepa|confs|strbr|  dualbound   | primalbound  |  gap   | compl. 
r4385s|    45 |     2 |  3692 |  77.1 |shifting|  15 |4065 | 526k| 524k|  99 |  9 |2111 |1764 | 3.410000e+02 | 3.630000e+02 |   6.45%|  65.46%
r4516s|    45 |     2 |  4004 |  84.2 |shifting|  15 |4065 | 526k| 524k| 118 | 17 |2133 |1839 | 3.410000e+02 | 3.630000e+02 |   6.45%|  65.46%

SCIP Status        : solving was interrupted [time limit reached]
Solving Time (sec) : 7201.57
Solving Nodes      : 97
Primal Bound       : +3.63000000000000e+02 (90 solutions)
Dual Bound         : +3.44535714285714e+02
Gap                : 5.36 %
SCIP Status        : solving was interrupted [time limit reached]
Total Time         :    7237.62
  solving          :    7201.57
  presolving       :     122.40 (included in solving)
  reading          :      36.05
  copying          :       9.30 (4 #copies) (minimal 2.24, maximal 2.42, average 2.32)
Original Problem   :
  Problem name     : mspp16
  Variables        : 29280 (29280 binary, 0 integer, 0 implicit integer, 0 continuous)
  Constraints      : 561657 initial, 561657 maximal
  Objective        : minimize, 4065 non-zeros (abs.min = 11, abs.max = 11)
Presolved Problem  :
  Problem name     : t_mspp16
  Variables        : 4065 (4065 binary, 0 integer, 0 implicit integer, 0 continuous)
  Constraints      : 524814 initial, 527665 maximal
  Objective        : minimize, 3585 non-zeros (abs.min = 1, abs.max = 1)
  Nonzeros         : 27555015 constraint, 15632 clique table
Presolvers         :   ExecTime  SetupTime  Calls  FixedVars   AggrVars   ChgTypes  ChgBounds   AddHoles    DelCons    AddCons   ChgSides   ChgCoefs
  boundshift       :       0.00       0.00      0          0          0          0          0          0          0          0          0          0
  convertinttobin  :       0.00       0.00      0          0          0          0          0          0          0          0          0          0
  domcol           :       2.81       0.00      1          0          0          0          0          0          0          0          0          0
  dualagg          :       0.00       0.00      0          0          0          0          0          0          0          0          0          0
  dualcomp         :       0.00       0.00      0          0          0          0          0          0          0          0          0          0
  dualinfer        :       0.00       0.00      0          0          0          0          0          0          0          0          0          0
  dualsparsify     :       6.09       0.00      1          0          0          0          0          0          0          0          0          0
  gateextraction   :       0.00       0.00      0          0          0          0          0          0          0          0          0          0
  implics          :       0.00       0.00      3          0          0          0          0          0          0          0          0          0
  inttobinary      :       0.00       0.00      0          0          0          0          0          0          0          0          0          0
  qpkktref         :       0.00       0.00      0          0          0          0          0          0          0          0          0          0
  redvub           :       0.00       0.00      0          0          0          0          0          0          0          0          0          0
  sparsify         :       4.35       0.00      1          0          0          0          0          0          0          0          0        480
  stuffing         :       0.00       0.00      0          0          0          0          0          0          0          0          0          0
  trivial          :       0.00       0.00      4          0          0          0          0          0          0          0          0          0
  tworowbnd        :       0.00       0.00      0          0          0          0          0          0          0          0          0          0
  dualfix          :       0.00       0.00      4          0          0          0          0          0          0          0          0          0
  genvbounds       :       0.00       0.00      0          0          0          0          0          0          0          0          0          0
  probing          :      65.70       0.00      1          0          0          0          0          0          0          0          0          0
  pseudoobj        :       0.00       0.00      0          0          0          0          0          0          0          0          0          0
  symmetry         :       0.00       0.00      0          0          0          0          0          0          0          0          0          0
  vbounds          :       0.00       0.00      2          0          0          0          0          0          0          0          0          0
  knapsack         :      23.76       0.26      5          0          0          0          0          0        210        210        210       3600
  setppc           :       0.01       0.00      5          0          0          0          0          0          0          0          0          0
  linear           :      14.06       5.44      6      25215          0          0      25215          0      36843          0        991          0
  logicor          :       0.00       0.00      0          0          0          0          0          0          0          0          0          0
  benders          :       0.00       0.00      0          0          0          0          0          0          0          0          0          0
  components       :       2.35       0.00      1          0          0          0          0          0          0          0          0          0
  root node        :          -          -      -          6          -          -          6          -          -          -          -          -
Constraints        :     Number  MaxNumber  #Separate #Propagate    #EnfoLP    #EnfoRelax  #EnfoPS    #Check   #ResProp    Cutoffs    DomReds       Cuts    Applied      Conss   Children
  benderslp        :          0          0          0          0        609          0          0        119          0          0          0          0          0          0          0
  integral         :          0          0          0          0        609          0          0        119          0          0       2354          0          0       3157         98
  knapsack         :     522862     522862         11      16675          0          0          0        114      15937         81      17652        140          6          0          0
  setppc           :       1936+      3268         11      16594          0          0          0         92      16392         57       7243          0          0          0          0
  linear           :         16         16         11      15686          0          0          0         90          0          0          0          0          0          0          0
  logicor          :          0+      1525         11       3761          0          0          0          0       1745         38        213          8          0          0          0
  benders          :          0          0          0          0          0          0          0         91          0          0          0          0          0          0          0
  countsols        :          0          0          0          0          0          0          0         91          0          0          0          0          0          0          0
  components       :          0          0          0          0          0          0          0          0          0          0          0          0          0          0          0
Constraint Timings :  TotalTime  SetupTime   Separate  Propagate     EnfoLP     EnfoPS     EnfoRelax   Check    ResProp    SB-Prop
  benderslp        :       0.00       0.00       0.00       0.00       0.00       0.00       0.00       0.00       0.00       0.00
  integral         :    5671.97       0.00       0.00       0.00    5671.96       0.00       0.00       0.01       0.00       0.00
  knapsack         :     344.60       0.26      11.40     142.36       0.00       0.00       0.00      46.38       0.02     144.17
  setppc           :      83.30       0.00       0.00      33.22       0.00       0.00       0.00       0.07       0.01      49.99
  linear           :       5.56       5.44       0.00       0.05       0.00       0.00       0.00       0.03       0.00       0.04
  logicor          :       7.26       0.00       0.00       0.75       0.00       0.00       0.00       0.00       0.01       6.50
  benders          :       0.00       0.00       0.00       0.00       0.00       0.00       0.00       0.00       0.00       0.00
  countsols        :       0.00       0.00       0.00       0.00       0.00       0.00       0.00       0.00       0.00       0.00
  components       :       0.00       0.00       0.00       0.00       0.00       0.00       0.00       0.00       0.00       0.00
Propagators        : #Propagate   #ResProp    Cutoffs    DomReds
  dualfix          :          1          0          0          0
  genvbounds       :          0          0          0          0
  nlobbt           :          0          0          0          0
  obbt             :          0          0          0          0
  probing          :          0          0          0          0
  pseudoobj        :       1719        216          0       2669
  redcost          :       1343          0          0      94456
  rootredcost      :          1          0          0          0
  symmetry         :          0          0          0          0
  vbounds          :       3351          0          0          0
Propagator Timings :  TotalTime  SetupTime   Presolve  Propagate    ResProp    SB-Prop
  dualfix          :       0.00       0.00       0.00       0.00       0.00       0.00
  genvbounds       :       0.01       0.00       0.00       0.00       0.00       0.00
  nlobbt           :       0.00       0.00       0.00       0.00       0.00       0.00
  obbt             :       0.00       0.00       0.00       0.00       0.00       0.00
  probing          :      65.70       0.00      65.70       0.00       0.00       0.00
  pseudoobj        :       8.66       0.00       0.00       8.63       0.03       0.00
  redcost          :     293.80       0.00       0.00     293.80       0.00       0.00
  rootredcost      :       0.01       0.00       0.00       0.01       0.00       0.00
  symmetry         :       0.00       0.00       0.00       0.00       0.00       0.00
  vbounds          :       0.04       0.00       0.00       0.02       0.00       0.01
Conflict Analysis  :       Time      Calls    Success    DomReds  Conflicts   Literals    Reconvs ReconvLits   Dualrays   Nonzeros   LP Iters   (pool size: [10000,10000])
  propagation      :       0.05        173        150          -        314       57.2         17       13.1          -          -          -
  infeasible LP    :       0.04          8          8          -         22      198.8          0        0.0          0        0.0          0
  bound exceed. LP :    2757.23       2082       2058          -       3427       18.5         15       25.1          0        0.0      10955
  strong branching :       0.00          0          0          -          0        0.0          0        0.0          -          -          0
  pseudo solution  :       0.00          0          0          -          0        0.0          0        0.0          -          -          -
  applied globally :       0.16          -          -          0       3317       15.1          -          -          0          -          -
  applied locally  :          -          -          -          0          0        0.0          -          -          0          -          -
Separators         :   ExecTime  SetupTime      Calls  RootCalls    Cutoffs    DomReds  FoundCuts ViaPoolAdd  DirectAdd    Applied ViaPoolApp  DirectApp      Conss
  cut pool         :       0.08          -         99         21          -          -       1289       1537          -          -          -          -          -    (maximal pool size:       1289)
  aggregation      :       9.36       0.00         61         11          0          0        172        452          1        146        145          1          0
  > cmir           :          -          -          -          -          -          -          -        218          0         69         69          0          -
  > flowcover      :          -          -          -          -          -          -          -        109          0          1          1          0          -
  > knapsackcover  :          -          -          -          -          -          -          -        125          1         76         75          1          -
  cgmip            :       0.00       0.00          0          0          0          0          0          0          0          0          0          0          0
  clique           :       0.02       0.00         11         11          0          0          0          0          0          0          0          0          0
  closecuts        :       0.00       0.00          0          0          0          0          0          0          0          0          0          0          0
  convexproj       :       0.00       0.00          0          0          0          0          0          0          0          0          0          0          0
  disjunctive      :       0.00       0.00          0          0          0          0          0          0          0          0          0          0          0
  eccuts           :       0.00       0.00          0          0          0          0          0          0          0          0          0          0          0
  gauge            :       0.00       0.00          0          0          0          0          0          0          0          0          0          0          0
  gomory           :      21.01       0.00         25         10          0          0       1128       1031         50         17         17          0          0
  > gomorymi       :          -          -          -          -          -          -          -        828         25         12         12          0          -
  > strongcg       :          -          -          -          -          -          -          -        203         25          5          5          0          -
  impliedbounds    :       2.16       0.00         61         11          0          0         14          7          0          3          3          0          0
  interminor       :       0.00       0.00          0          0          0          0          0          0          0          0          0          0          0
  intobj           :       0.00       0.00          0          0          0          0          0          0          0          0          0          0          0
  mcf              :       0.00       0.00          0          0          0          0          0          0          0          0          0          0          0
  minor            :       0.00       0.00          0          0          0          0          0          0          0          0          0          0          0
  mixing           :       0.00       0.00          0          0          0          0          0          0          0          0          0          0          0
  oddcycle         :       0.00       0.00          0          0          0          0          0          0          0          0          0          0          0
  rapidlearning    :       0.56       0.00          0          0          0          0          0          0          0          0          0          0          0
  rlt              :       0.00       0.00         10         10          0          0          0          0          0          0          0          0          0
  zerohalf         :       0.92       0.00         26         11          0          0         32         47          6         14         12          2          0
Cutselectors       :   ExecTime  SetupTime      Calls  RootCalls   Selected     Forced   Filtered  RootSelec   RootForc   RootFilt 
  hybrid           :       0.00       0.00         55         11        186          0       1556         70          0        359
Pricers            :   ExecTime  SetupTime      Calls       Vars
  problem variables:       0.00          -          0          0
Branching Rules    :   ExecTime  SetupTime   BranchLP  BranchExt   BranchPS    Cutoffs    DomReds       Cuts      Conss   Children
  allfullstrong    :       0.00       0.00          0          0          0          0          0          0          0          0
  cloud            :       0.00       0.00          0          0          0          0          0          0          0          0
  distribution     :       0.00       0.00          0          0          0          0          0          0          0          0
  fullstrong       :       0.00       0.00          0          0          0          0          0          0          0          0
  inference        :       0.00       0.00          0          0          0          0          0          0          0          0
  leastinf         :       0.00       0.00          0          0          0          0          0          0          0          0
  lookahead        :       0.00       0.00          0          0          0          0          0          0          0          0
  mostinf          :       0.00       0.00          0          0          0          0          0          0          0          0
  multaggr         :       0.00       0.00          0          0          0          0          0          0          0          0
  nodereopt        :       0.00       0.00          0          0          0          0          0          0          0          0
  pscost           :       0.00       0.00          0          0          0          0          0          0          0          0
  random           :       0.00       0.00          0          0          0          0          0          0          0          0
  relpscost        :    5671.96       0.00        609          0          0          0       2354          0       3181         98
  vanillafullstrong:       0.00       0.00          0          0          0          0          0          0          0          0
Primal Heuristics  :   ExecTime  SetupTime      Calls      Found       Best
  LP solutions     :       0.00          -          -          0          0
  relax solutions  :       0.00          -          -          0          0
  pseudo solutions :       0.00          -          -          0          0
  strong branching :       0.02          -          -          0          0
  actconsdiving    :       0.00       0.00          0          0          0
  adaptivediving   :       0.00       0.00          0          0          0
  alns             :      15.59       0.00          3          0          0
  bound            :       0.00       0.00          0          0          0
  clique           :      20.78       0.00          1          0          0
  coefdiving       :       0.00       0.00          0          0          0
  completesol      :       0.00       0.00          0          0          0
  conflictdiving   :       8.12       0.00          1          0          0
  crossover        :       0.00       0.00          0          0          0
  dins             :       0.00       0.00          0          0          0
  distributiondivin:       0.03       0.00          0          0          0
  dps              :       0.00       0.00          0          0          0
  dualval          :       0.00       0.00          0          0          0
  farkasdiving     :       0.00       0.00          0          0          0
  feaspump         :       0.00       0.00          0          0          0
  fixandinfer      :       0.00       0.00          0          0          0
  fracdiving       :       0.00       0.00          0          0          0
  gins             :       0.00       0.00          0          0          0
  guideddiving     :       0.00       0.00          0          0          0
  indicator        :       0.00       0.00          0          0          0
  intdiving        :       0.00       0.00          0          0          0
  intshifting      :       0.00       0.00          0          0          0
  linesearchdiving :       0.00       0.00          0          0          0
  localbranching   :       0.00       0.00          0          0          0
  locks            :      31.74       0.00          1          0          0
  lpface           :      35.79       0.00          1          0          0
  mpec             :       0.00       0.00          0          0          0
  multistart       :       0.00       0.00          0          0          0
  mutation         :       0.00       0.00          0          0          0
  nlpdiving        :       0.00       0.00          0          0          0
  objpscostdiving  :       0.00       0.00          0          0          0
  octane           :       0.00       0.00          0          0          0
  ofins            :       0.00       0.00          0          0          0
  oneopt           :       1.56       0.00          4          0          0
  padm             :       0.00       0.00          0          0          0
  proximity        :       0.00       0.00          0          0          0
  pscostdiving     :       0.00       0.00          0          0          0
  randrounding     :      13.65       0.00         21          0          0
  rens             :       3.45       0.00          1          0          0
  reoptsols        :       0.00       0.00          0          0          0
  repair           :       0.00       0.00          0          0          0
  rins             :       0.00       0.00          0          0          0
  rootsoldiving    :       0.00       0.00          0          0          0
  rounding         :       6.99       0.00        274          0          0
  shiftandpropagate:      27.91       0.00          1          0          0
  shifting         :      50.93       0.00         99         90          2
  simplerounding   :       0.00       0.00          0          0          0
  subnlp           :       0.00       0.00          0          0          0
  trivial          :       0.72       0.00          2          0          0
  trivialnegation  :       0.00       0.00          0          0          0
  trustregion      :       0.00       0.00          0          0          0
  trysol           :       0.00       0.00          0          0          0
  twoopt           :       0.00       0.00          0          0          0
  undercover       :       0.00       0.00          0          0          0
  vbounds          :      30.13       0.00          1          0          0
  veclendiving     :       0.00       0.00          0          0          0
  zeroobj          :       0.00       0.00          0          0          0
  zirounding       :       1.31       0.00         49          0          0
  other solutions  :          -          -          -          0          -
LP                 :       Time      Calls Iterations  Iter/call   Iter/sec  Time-0-It Calls-0-It    ItLimit
  primal LP        :      51.00         15          0       0.00       0.00      51.00         15
  dual LP          :     464.27        743       6333       9.35      13.64      19.26         66
  lex dual LP      :       0.00          0          0       0.00          -
  barrier LP       :       0.00          0          0       0.00          -       0.00          0
  resolve instable :       0.00          0          0       0.00          -
  diving/probing LP:     223.94          3         54      18.00       0.24
  strong branching :    2206.03       2752      42640      15.49      19.33          -          -        199
    (at root node) :          -         29       1175      40.52          -
  conflict analysis:    2732.59       1108      10955       9.89       4.01
B&B Tree           :
  number of runs   :          1
  nodes            :         97 (49 internal, 48 leaves)
  feasible leaves  :          0
  infeas. leaves   :         44
  objective leaves :          3
  nodes (total)    :         97 (49 internal, 48 leaves)
  nodes left       :          3
  max depth        :         28
  max depth (total):         28
  backtracks       :          9 (9.3%)
  early backtracks :          0 (0.0%)
  nodes exc. ref.  :          0 (0.0%)
  delayed cutoffs  :          0
  repropagations   :        128 (76 domain reductions, 0 cutoffs)
  avg switch length:       4.65
  switching time   :     142.25
Root Node          :
  First LP value   : +3.41000000000000e+02
  First LP Iters   :          2 (0.08 Iter/sec)
  First LP Time    :      25.50
  Final Dual Bound : +3.41000000000000e+02
  Final Root Iters :        300
  Root LP Estimate : +3.42343156997190e+02
Solution           :
  Solutions found  :         90 (2 improvements)
  First Solution   : +3.74000000000000e+02   (in run 1, after 1 nodes, 267.70 seconds, depth 0, found by <shifting>)
  Gap First Sol.   :       9.68 %
  Gap Last Sol.    :       6.45 %
  Primal Bound     : +3.63000000000000e+02   (in run 1, after 45 nodes, 4515.63 seconds, depth 10, found by <shifting>)
  Dual Bound       : +3.44535714285714e+02
  Gap              :       5.36 %
Integrals          :      Total       Avg%
  primal-dual      :   68555.32       9.52
  primal-ref       :          -          - (not evaluated)
  dual-ref         :          -          - (not evaluated)
written solution information to file <results/final_miplib_symretope_if_extended_generating_set_cpx_v802__settings_final_nosym_norestarts__4__mspp16.mps.gz.sol>
@04 1686671084
